z3_origin/BDC_ProveIneq_ISSAC10_ex4e.txt
sat
(:max-memory         18.63
 :memory             18.53
 :nlsat-arith-var    3
 :nlsat-atoms        17
 :nlsat-bool-var     1
 :nlsat-clauses      17
 :nlsat-propagations 17
 :nlsat-stages       4
 :num-allocs         87660
 :rlimit-count       4743
 :time               0.00
 :total-time         0.02)
